Route 1: 0 85 13 87 81 89 2 82 12 46 55 0
Route 2: 0 68 53 84 92 43 27 57 94 30 31 0
Route 3: 0 99 47 56 79 100 77 86 37 17 54 24 11 0
Route 4: 0 69 16 80 8 9 73 25 23 4 91 0
Route 5: 0 1 20 58 35 6 51 32 45 49 0
Route 6: 0 72 75 15 29 26 36 65 70 96 0
Route 7: 0 76 78 38 3 66 7 95 0
Route 8: 0 67 90 10 34 50 41 71 74 5 19 98 18 0
Route 9: 0 42 93 83 62 28 63 0
Route 10: 0 52 64 21 33 60 22 44 48 61 0
Route 11: 0 39 88 14 97 40 59 0
